(declare-fun C1 () Real)
(declare-fun C2 () Real)
(declare-fun C3 () Real)
(declare-fun C4 () Real)
(declare-fun C5 () Real)
(declare-fun C6 () Real)
(declare-fun C7 () Real)
(declare-fun C8 () Real)
(declare-fun C9 () Real)
(declare-fun C10 () Real)
(declare-fun k () Real)
(assert (let 
(( $goal (<= (+ (/ C1 1158 ) (/ C2 1312 ) (/ C3 1735 ) (/ C4 2517 ) (/ C5 2554 ) (/ C6 2947 ) (/ C7 3511 ) (/ C8 3769 ) (/ C9 4460 ) (/ C10 4801 ) ) k ) ))
(let 
(($phi ( and ( or  (>= 1158 (+  (* 1 C1)  (* 0 C2)  (* 0 C3)  (* 0 C4)  (* 0 C5)  (* 0 C6)  (* 0 C7)  (* 0 C8)  (* 0 C9)  (* 0 C10) )) ) ( or  (>= 1158 (+  (* 1 C1)  (* 1 C2)  (* 0 C3)  (* 0 C4)  (* 0 C5)  (* 0 C6)  (* 0 C7)  (* 0 C8)  (* 0 C9)  (* 0 C10) ))  (>= 1312 (+  (* 2 C1)  (* 1 C2)  (* 0 C3)  (* 0 C4)  (* 0 C5)  (* 0 C6)  (* 0 C7)  (* 0 C8)  (* 0 C9)  (* 0 C10) )) ) ( or  (>= 1158 (+  (* 1 C1)  (* 1 C2)  (* 1 C3)  (* 0 C4)  (* 0 C5)  (* 0 C6)  (* 0 C7)  (* 0 C8)  (* 0 C9)  (* 0 C10) ))  (>= 1312 (+  (* 2 C1)  (* 1 C2)  (* 1 C3)  (* 0 C4)  (* 0 C5)  (* 0 C6)  (* 0 C7)  (* 0 C8)  (* 0 C9)  (* 0 C10) ))  (>= 1735 (+  (* 2 C1)  (* 2 C2)  (* 1 C3)  (* 0 C4)  (* 0 C5)  (* 0 C6)  (* 0 C7)  (* 0 C8)  (* 0 C9)  (* 0 C10) )) ) ( or  (>= 1158 (+  (* 1 C1)  (* 1 C2)  (* 1 C3)  (* 1 C4)  (* 0 C5)  (* 0 C6)  (* 0 C7)  (* 0 C8)  (* 0 C9)  (* 0 C10) ))  (>= 1312 (+  (* 2 C1)  (* 1 C2)  (* 1 C3)  (* 1 C4)  (* 0 C5)  (* 0 C6)  (* 0 C7)  (* 0 C8)  (* 0 C9)  (* 0 C10) ))  (>= 1735 (+  (* 2 C1)  (* 2 C2)  (* 1 C3)  (* 1 C4)  (* 0 C5)  (* 0 C6)  (* 0 C7)  (* 0 C8)  (* 0 C9)  (* 0 C10) ))  (>= 2316 (+  (* 2 C1)  (* 2 C2)  (* 2 C3)  (* 1 C4)  (* 0 C5)  (* 0 C6)  (* 0 C7)  (* 0 C8)  (* 0 C9)  (* 0 C10) ))  (>= 2517 (+  (* 3 C1)  (* 2 C2)  (* 2 C3)  (* 1 C4)  (* 0 C5)  (* 0 C6)  (* 0 C7)  (* 0 C8)  (* 0 C9)  (* 0 C10) )) ) ( or  (>= 1158 (+  (* 1 C1)  (* 1 C2)  (* 1 C3)  (* 1 C4)  (* 1 C5)  (* 0 C6)  (* 0 C7)  (* 0 C8)  (* 0 C9)  (* 0 C10) ))  (>= 1312 (+  (* 2 C1)  (* 1 C2)  (* 1 C3)  (* 1 C4)  (* 1 C5)  (* 0 C6)  (* 0 C7)  (* 0 C8)  (* 0 C9)  (* 0 C10) ))  (>= 1735 (+  (* 2 C1)  (* 2 C2)  (* 1 C3)  (* 1 C4)  (* 1 C5)  (* 0 C6)  (* 0 C7)  (* 0 C8)  (* 0 C9)  (* 0 C10) ))  (>= 2316 (+  (* 2 C1)  (* 2 C2)  (* 2 C3)  (* 1 C4)  (* 1 C5)  (* 0 C6)  (* 0 C7)  (* 0 C8)  (* 0 C9)  (* 0 C10) ))  (>= 2517 (+  (* 3 C1)  (* 2 C2)  (* 2 C3)  (* 1 C4)  (* 1 C5)  (* 0 C6)  (* 0 C7)  (* 0 C8)  (* 0 C9)  (* 0 C10) ))  (>= 2554 (+  (* 3 C1)  (* 2 C2)  (* 2 C3)  (* 2 C4)  (* 1 C5)  (* 0 C6)  (* 0 C7)  (* 0 C8)  (* 0 C9)  (* 0 C10) )) ) ( or  (>= 1158 (+  (* 1 C1)  (* 1 C2)  (* 1 C3)  (* 1 C4)  (* 1 C5)  (* 1 C6)  (* 0 C7)  (* 0 C8)  (* 0 C9)  (* 0 C10) ))  (>= 1312 (+  (* 2 C1)  (* 1 C2)  (* 1 C3)  (* 1 C4)  (* 1 C5)  (* 1 C6)  (* 0 C7)  (* 0 C8)  (* 0 C9)  (* 0 C10) ))  (>= 1735 (+  (* 2 C1)  (* 2 C2)  (* 1 C3)  (* 1 C4)  (* 1 C5)  (* 1 C6)  (* 0 C7)  (* 0 C8)  (* 0 C9)  (* 0 C10) ))  (>= 2316 (+  (* 2 C1)  (* 2 C2)  (* 2 C3)  (* 1 C4)  (* 1 C5)  (* 1 C6)  (* 0 C7)  (* 0 C8)  (* 0 C9)  (* 0 C10) ))  (>= 2517 (+  (* 3 C1)  (* 2 C2)  (* 2 C3)  (* 1 C4)  (* 1 C5)  (* 1 C6)  (* 0 C7)  (* 0 C8)  (* 0 C9)  (* 0 C10) ))  (>= 2554 (+  (* 3 C1)  (* 2 C2)  (* 2 C3)  (* 2 C4)  (* 1 C5)  (* 1 C6)  (* 0 C7)  (* 0 C8)  (* 0 C9)  (* 0 C10) ))  (>= 2624 (+  (* 3 C1)  (* 2 C2)  (* 2 C3)  (* 2 C4)  (* 2 C5)  (* 1 C6)  (* 0 C7)  (* 0 C8)  (* 0 C9)  (* 0 C10) ))  (>= 2947 (+  (* 3 C1)  (* 3 C2)  (* 2 C3)  (* 2 C4)  (* 2 C5)  (* 1 C6)  (* 0 C7)  (* 0 C8)  (* 0 C9)  (* 0 C10) )) ) ( or  (>= 1158 (+  (* 1 C1)  (* 1 C2)  (* 1 C3)  (* 1 C4)  (* 1 C5)  (* 1 C6)  (* 1 C7)  (* 0 C8)  (* 0 C9)  (* 0 C10) ))  (>= 1312 (+  (* 2 C1)  (* 1 C2)  (* 1 C3)  (* 1 C4)  (* 1 C5)  (* 1 C6)  (* 1 C7)  (* 0 C8)  (* 0 C9)  (* 0 C10) ))  (>= 1735 (+  (* 2 C1)  (* 2 C2)  (* 1 C3)  (* 1 C4)  (* 1 C5)  (* 1 C6)  (* 1 C7)  (* 0 C8)  (* 0 C9)  (* 0 C10) ))  (>= 2316 (+  (* 2 C1)  (* 2 C2)  (* 2 C3)  (* 1 C4)  (* 1 C5)  (* 1 C6)  (* 1 C7)  (* 0 C8)  (* 0 C9)  (* 0 C10) ))  (>= 2517 (+  (* 3 C1)  (* 2 C2)  (* 2 C3)  (* 1 C4)  (* 1 C5)  (* 1 C6)  (* 1 C7)  (* 0 C8)  (* 0 C9)  (* 0 C10) ))  (>= 2554 (+  (* 3 C1)  (* 2 C2)  (* 2 C3)  (* 2 C4)  (* 1 C5)  (* 1 C6)  (* 1 C7)  (* 0 C8)  (* 0 C9)  (* 0 C10) ))  (>= 2624 (+  (* 3 C1)  (* 2 C2)  (* 2 C3)  (* 2 C4)  (* 2 C5)  (* 1 C6)  (* 1 C7)  (* 0 C8)  (* 0 C9)  (* 0 C10) ))  (>= 2947 (+  (* 3 C1)  (* 3 C2)  (* 2 C3)  (* 2 C4)  (* 2 C5)  (* 1 C6)  (* 1 C7)  (* 0 C8)  (* 0 C9)  (* 0 C10) ))  (>= 3470 (+  (* 3 C1)  (* 3 C2)  (* 2 C3)  (* 2 C4)  (* 2 C5)  (* 2 C6)  (* 1 C7)  (* 0 C8)  (* 0 C9)  (* 0 C10) ))  (>= 3474 (+  (* 3 C1)  (* 3 C2)  (* 3 C3)  (* 2 C4)  (* 2 C5)  (* 2 C6)  (* 1 C7)  (* 0 C8)  (* 0 C9)  (* 0 C10) ))  (>= 3511 (+  (* 4 C1)  (* 3 C2)  (* 3 C3)  (* 2 C4)  (* 2 C5)  (* 2 C6)  (* 1 C7)  (* 0 C8)  (* 0 C9)  (* 0 C10) )) ) ( or  (>= 1158 (+  (* 1 C1)  (* 1 C2)  (* 1 C3)  (* 1 C4)  (* 1 C5)  (* 1 C6)  (* 1 C7)  (* 1 C8)  (* 0 C9)  (* 0 C10) ))  (>= 1312 (+  (* 2 C1)  (* 1 C2)  (* 1 C3)  (* 1 C4)  (* 1 C5)  (* 1 C6)  (* 1 C7)  (* 1 C8)  (* 0 C9)  (* 0 C10) ))  (>= 1735 (+  (* 2 C1)  (* 2 C2)  (* 1 C3)  (* 1 C4)  (* 1 C5)  (* 1 C6)  (* 1 C7)  (* 1 C8)  (* 0 C9)  (* 0 C10) ))  (>= 2316 (+  (* 2 C1)  (* 2 C2)  (* 2 C3)  (* 1 C4)  (* 1 C5)  (* 1 C6)  (* 1 C7)  (* 1 C8)  (* 0 C9)  (* 0 C10) ))  (>= 2517 (+  (* 3 C1)  (* 2 C2)  (* 2 C3)  (* 1 C4)  (* 1 C5)  (* 1 C6)  (* 1 C7)  (* 1 C8)  (* 0 C9)  (* 0 C10) ))  (>= 2554 (+  (* 3 C1)  (* 2 C2)  (* 2 C3)  (* 2 C4)  (* 1 C5)  (* 1 C6)  (* 1 C7)  (* 1 C8)  (* 0 C9)  (* 0 C10) ))  (>= 2624 (+  (* 3 C1)  (* 2 C2)  (* 2 C3)  (* 2 C4)  (* 2 C5)  (* 1 C6)  (* 1 C7)  (* 1 C8)  (* 0 C9)  (* 0 C10) ))  (>= 2947 (+  (* 3 C1)  (* 3 C2)  (* 2 C3)  (* 2 C4)  (* 2 C5)  (* 1 C6)  (* 1 C7)  (* 1 C8)  (* 0 C9)  (* 0 C10) ))  (>= 3470 (+  (* 3 C1)  (* 3 C2)  (* 2 C3)  (* 2 C4)  (* 2 C5)  (* 2 C6)  (* 1 C7)  (* 1 C8)  (* 0 C9)  (* 0 C10) ))  (>= 3474 (+  (* 3 C1)  (* 3 C2)  (* 3 C3)  (* 2 C4)  (* 2 C5)  (* 2 C6)  (* 1 C7)  (* 1 C8)  (* 0 C9)  (* 0 C10) ))  (>= 3511 (+  (* 4 C1)  (* 3 C2)  (* 3 C3)  (* 2 C4)  (* 2 C5)  (* 2 C6)  (* 1 C7)  (* 1 C8)  (* 0 C9)  (* 0 C10) ))  (>= 3769 (+  (* 4 C1)  (* 3 C2)  (* 3 C3)  (* 2 C4)  (* 2 C5)  (* 2 C6)  (* 2 C7)  (* 1 C8)  (* 0 C9)  (* 0 C10) )) ) ( or  (>= 1158 (+  (* 1 C1)  (* 1 C2)  (* 1 C3)  (* 1 C4)  (* 1 C5)  (* 1 C6)  (* 1 C7)  (* 1 C8)  (* 1 C9)  (* 0 C10) ))  (>= 1312 (+  (* 2 C1)  (* 1 C2)  (* 1 C3)  (* 1 C4)  (* 1 C5)  (* 1 C6)  (* 1 C7)  (* 1 C8)  (* 1 C9)  (* 0 C10) ))  (>= 1735 (+  (* 2 C1)  (* 2 C2)  (* 1 C3)  (* 1 C4)  (* 1 C5)  (* 1 C6)  (* 1 C7)  (* 1 C8)  (* 1 C9)  (* 0 C10) ))  (>= 2316 (+  (* 2 C1)  (* 2 C2)  (* 2 C3)  (* 1 C4)  (* 1 C5)  (* 1 C6)  (* 1 C7)  (* 1 C8)  (* 1 C9)  (* 0 C10) ))  (>= 2517 (+  (* 3 C1)  (* 2 C2)  (* 2 C3)  (* 1 C4)  (* 1 C5)  (* 1 C6)  (* 1 C7)  (* 1 C8)  (* 1 C9)  (* 0 C10) ))  (>= 2554 (+  (* 3 C1)  (* 2 C2)  (* 2 C3)  (* 2 C4)  (* 1 C5)  (* 1 C6)  (* 1 C7)  (* 1 C8)  (* 1 C9)  (* 0 C10) ))  (>= 2624 (+  (* 3 C1)  (* 2 C2)  (* 2 C3)  (* 2 C4)  (* 2 C5)  (* 1 C6)  (* 1 C7)  (* 1 C8)  (* 1 C9)  (* 0 C10) ))  (>= 2947 (+  (* 3 C1)  (* 3 C2)  (* 2 C3)  (* 2 C4)  (* 2 C5)  (* 1 C6)  (* 1 C7)  (* 1 C8)  (* 1 C9)  (* 0 C10) ))  (>= 3470 (+  (* 3 C1)  (* 3 C2)  (* 2 C3)  (* 2 C4)  (* 2 C5)  (* 2 C6)  (* 1 C7)  (* 1 C8)  (* 1 C9)  (* 0 C10) ))  (>= 3474 (+  (* 3 C1)  (* 3 C2)  (* 3 C3)  (* 2 C4)  (* 2 C5)  (* 2 C6)  (* 1 C7)  (* 1 C8)  (* 1 C9)  (* 0 C10) ))  (>= 3511 (+  (* 4 C1)  (* 3 C2)  (* 3 C3)  (* 2 C4)  (* 2 C5)  (* 2 C6)  (* 1 C7)  (* 1 C8)  (* 1 C9)  (* 0 C10) ))  (>= 3769 (+  (* 4 C1)  (* 3 C2)  (* 3 C3)  (* 2 C4)  (* 2 C5)  (* 2 C6)  (* 2 C7)  (* 1 C8)  (* 1 C9)  (* 0 C10) ))  (>= 3936 (+  (* 4 C1)  (* 3 C2)  (* 3 C3)  (* 2 C4)  (* 2 C5)  (* 2 C6)  (* 2 C7)  (* 2 C8)  (* 1 C9)  (* 0 C10) ))  (>= 4460 (+  (* 4 C1)  (* 4 C2)  (* 3 C3)  (* 2 C4)  (* 2 C5)  (* 2 C6)  (* 2 C7)  (* 2 C8)  (* 1 C9)  (* 0 C10) )) ) ( or  (>= 1158 (+  (* 1 C1)  (* 1 C2)  (* 1 C3)  (* 1 C4)  (* 1 C5)  (* 1 C6)  (* 1 C7)  (* 1 C8)  (* 1 C9)  (* 1 C10) ))  (>= 1312 (+  (* 2 C1)  (* 1 C2)  (* 1 C3)  (* 1 C4)  (* 1 C5)  (* 1 C6)  (* 1 C7)  (* 1 C8)  (* 1 C9)  (* 1 C10) ))  (>= 1735 (+  (* 2 C1)  (* 2 C2)  (* 1 C3)  (* 1 C4)  (* 1 C5)  (* 1 C6)  (* 1 C7)  (* 1 C8)  (* 1 C9)  (* 1 C10) ))  (>= 2316 (+  (* 2 C1)  (* 2 C2)  (* 2 C3)  (* 1 C4)  (* 1 C5)  (* 1 C6)  (* 1 C7)  (* 1 C8)  (* 1 C9)  (* 1 C10) ))  (>= 2517 (+  (* 3 C1)  (* 2 C2)  (* 2 C3)  (* 1 C4)  (* 1 C5)  (* 1 C6)  (* 1 C7)  (* 1 C8)  (* 1 C9)  (* 1 C10) ))  (>= 2554 (+  (* 3 C1)  (* 2 C2)  (* 2 C3)  (* 2 C4)  (* 1 C5)  (* 1 C6)  (* 1 C7)  (* 1 C8)  (* 1 C9)  (* 1 C10) ))  (>= 2624 (+  (* 3 C1)  (* 2 C2)  (* 2 C3)  (* 2 C4)  (* 2 C5)  (* 1 C6)  (* 1 C7)  (* 1 C8)  (* 1 C9)  (* 1 C10) ))  (>= 2947 (+  (* 3 C1)  (* 3 C2)  (* 2 C3)  (* 2 C4)  (* 2 C5)  (* 1 C6)  (* 1 C7)  (* 1 C8)  (* 1 C9)  (* 1 C10) ))  (>= 3470 (+  (* 3 C1)  (* 3 C2)  (* 2 C3)  (* 2 C4)  (* 2 C5)  (* 2 C6)  (* 1 C7)  (* 1 C8)  (* 1 C9)  (* 1 C10) ))  (>= 3474 (+  (* 3 C1)  (* 3 C2)  (* 3 C3)  (* 2 C4)  (* 2 C5)  (* 2 C6)  (* 1 C7)  (* 1 C8)  (* 1 C9)  (* 1 C10) ))  (>= 3511 (+  (* 4 C1)  (* 3 C2)  (* 3 C3)  (* 2 C4)  (* 2 C5)  (* 2 C6)  (* 1 C7)  (* 1 C8)  (* 1 C9)  (* 1 C10) ))  (>= 3769 (+  (* 4 C1)  (* 3 C2)  (* 3 C3)  (* 2 C4)  (* 2 C5)  (* 2 C6)  (* 2 C7)  (* 1 C8)  (* 1 C9)  (* 1 C10) ))  (>= 3936 (+  (* 4 C1)  (* 3 C2)  (* 3 C3)  (* 2 C4)  (* 2 C5)  (* 2 C6)  (* 2 C7)  (* 2 C8)  (* 1 C9)  (* 1 C10) ))  (>= 4460 (+  (* 4 C1)  (* 4 C2)  (* 3 C3)  (* 2 C4)  (* 2 C5)  (* 2 C6)  (* 2 C7)  (* 2 C8)  (* 1 C9)  (* 1 C10) ))  (>= 4632 (+  (* 4 C1)  (* 4 C2)  (* 3 C3)  (* 2 C4)  (* 2 C5)  (* 2 C6)  (* 2 C7)  (* 2 C8)  (* 2 C9)  (* 1 C10) ))  (>= 4801 (+  (* 5 C1)  (* 4 C2)  (* 3 C3)  (* 2 C4)  (* 2 C5)  (* 2 C6)  (* 2 C7)  (* 2 C8)  (* 2 C9)  (* 1 C10) )) )  (and (>= C1 11) (>= C2 13) (>= C3 17) (>= C4 25) (>= C5 25) (>= C6 29) (>= C7 35) (>= C8 37) (>= C9 44) (>= C10 48) )  (and (<= C1 685) (<= C2 776) (<= C3 1026) (<= C4 1489) (<= C5 1511) (<= C6 1744) (<= C7 2078) (<= C8 2230) (<= C9 2639) (<= C10 2841) ) )))
(=> $phi $goal))))